\ENCODING=ISO-8859-1
\Problem name: IloCplex

Minimize
 obj: 4920.72 x1 + 26416.32 x2 + 19629.12 x3 + 13883.52 x4 + 9154.32 x5
      + 14983.92 x6 + 21855.12 x7 + 35337.12 x8 + 15118.32 x9 + 23686.32 x10
      + 9828 x11 + 19309.92 x12 + 57479.52 x13 + 11187.12 x14 + 22963.92 x15
      + 15496.32 x16 + 300 x17 + 300 x18 + 300 x19 + 300 x21 + 300 x22
      + 299.999999999999 x23 + 300 x24 + 300 x25 + 300 x26 + 300 x27 + 300 x28
      + 300 x29 + 300 x30 + 300 x31 + 300 x32
Subject To
 c1:  x1 + x2 + x3 + x4 + x5 + x6 + x7 + x8 + x9 + x10 + x11 + x12 + x13 + x14
      + x15 + x16  = 1
 c2:  15000 x17 + 15000 x18 + 15000 x19 + 15000 x20 + 15000 x21 + 15000 x22
      + 15000 x23 + 15000 x24 + 15000 x25 + 15000 x26 + 15000 x27 + 15000 x28
      + 15000 x29 + 15000 x30 + 15000 x31 >= 0
 c3:  15000 x17 + 15000 x18 + 15000 x19 + 15000 x20 + 15000 x21 + 15000 x22
      + 15000 x23 + 15000 x24 + 15000 x25 + 15000 x26 + 15000 x27 + 15000 x28
      + 15000 x29 + 15000 x31 + 15000 x32 >= 0
 c4:  15000 x17 + 15000 x18 + 15000 x19 + 15000 x20 + 15000 x21 + 15000 x22
      + 15000 x23 + 15000 x24 + 15000 x25 + 15000 x27 + 15000 x28 + 15000 x29
      + 15000 x30 + 15000 x31 + 15000 x32 >= 0
 c5:  15000 x17 + 15000 x18 + 15000 x20 + 15000 x21 + 15000 x22 + 15000 x23
      + 15000 x24 + 15000 x25 + 15000 x26 + 15000 x27 + 15000 x28 + 15000 x29
      + 15000 x30 + 15000 x31 + 15000 x32 >= 0
 c6:  15000 x17 + 15000 x18 + 15000 x19 + 15000 x20 + 15000 x22 + 15000 x23
      + 15000 x24 + 15000 x25 + 15000 x26 + 15000 x27 + 15000 x28 + 15000 x29
      + 15000 x30 + 15000 x31 + 15000 x32 >= 0
 c7:  15000 x17 + 15000 x18 + 15000 x19 + 15000 x20 + 15000 x21 + 15000 x22
      + 15000 x23 + 15000 x24 + 15000 x26 + 15000 x27 + 15000 x28 + 15000 x29
      + 15000 x30 + 15000 x31 + 15000 x32 >= 0
 c8:  15000 x17 + 15000 x18 + 15000 x19 + 15000 x20 + 15000 x21 + 15000 x22
      + 15000 x24 + 15000 x25 + 15000 x26 + 15000 x27 + 15000 x28 + 15000 x29
      + 15000 x30 + 15000 x31 + 15000 x32 >= 0
 c9:  15000 x18 + 15000 x19 + 15000 x20 + 15000 x21 + 15000 x22 + 15000 x23
      + 15000 x24 + 15000 x25 + 15000 x26 + 15000 x27 + 15000 x28 + 15000 x29
      + 15000 x30 + 15000 x31 + 15000 x32 >= 0
 c10: 15000 x17 + 15000 x18 + 15000 x19 + 15000 x20 + 15000 x21 + 15000 x23
      + 15000 x24 + 15000 x25 + 15000 x26 + 15000 x27 + 15000 x28 + 15000 x29
      + 15000 x30 + 15000 x31 + 15000 x32 >= 0
 c11: 15000 x17 + 15000 x18 + 15000 x19 + 15000 x20 + 15000 x21 + 15000 x22
      + 15000 x23 + 15000 x24 + 15000 x25 + 15000 x26 + 15000 x28 + 15000 x29
      + 15000 x30 + 15000 x31 + 15000 x32 >= 0
 c12: 15000 x17 + 15000 x18 + 15000 x19 + 15000 x21 + 15000 x22 + 15000 x23
      + 15000 x24 + 15000 x25 + 15000 x26 + 15000 x27 + 15000 x28 + 15000 x29
      + 15000 x30 + 15000 x31 + 15000 x32 >= 0
 c13: 15000 x17 + 15000 x19 + 15000 x20 + 15000 x21 + 15000 x22 + 15000 x23
      + 15000 x24 + 15000 x25 + 15000 x26 + 15000 x27 + 15000 x28 + 15000 x29
      + 15000 x30 + 15000 x31 + 15000 x32 >= 0
 c14: 15000 x17 + 15000 x18 + 15000 x19 + 15000 x20 + 15000 x21 + 15000 x22
      + 15000 x23 + 15000 x24 + 15000 x25 + 15000 x26 + 15000 x27 + 15000 x28
      + 15000 x30 + 15000 x31 + 15000 x32 >= 0
 c15: 15000 x17 + 15000 x18 + 15000 x19 + 15000 x20 + 15000 x21 + 15000 x22
      + 15000 x23 + 15000 x25 + 15000 x26 + 15000 x27 + 15000 x28 + 15000 x29
      + 15000 x30 + 15000 x31 + 15000 x32 >= 0
 c16: 15000 x17 + 15000 x18 + 15000 x19 + 15000 x20 + 15000 x21 + 15000 x22
      + 15000 x23 + 15000 x24 + 15000 x25 + 15000 x26 + 15000 x27 + 15000 x28
      + 15000 x29 + 15000 x30 + 15000 x32 >= 0
 c17: 15000 x17 + 15000 x18 + 15000 x19 + 15000 x20 + 15000 x21 + 15000 x22
      + 15000 x23 + 15000 x24 + 15000 x25 + 15000 x26 + 15000 x27 + 15000 x29
      + 15000 x30 + 15000 x31 + 15000 x32 >= 0
Bounds
 0 <= x1 <= 1
 0 <= x2 <= 1
 0 <= x3 <= 1
 0 <= x4 <= 1
 0 <= x5 <= 1
 0 <= x6 <= 1
 0 <= x7 <= 1
 0 <= x8 <= 1
 0 <= x9 <= 1
 0 <= x10 <= 1
 0 <= x11 <= 1
 0 <= x12 <= 1
 0 <= x13 <= 1
 0 <= x14 <= 1
 0 <= x15 <= 1
 0 <= x16 <= 1
 0 <= x17 <= 1
 0 <= x18 <= 1
 0 <= x19 <= 1
 0 <= x20 <= 1
 0 <= x21 <= 1
 0 <= x22 <= 1
 0 <= x23 <= 1
 0 <= x24 <= 1
 0 <= x25 <= 1
 0 <= x26 <= 1
 0 <= x27 <= 1
 0 <= x28 <= 1
 0 <= x29 <= 1
 0 <= x30 <= 1
 0 <= x31 <= 1
 0 <= x32 <= 1
Binaries
 x1  x2  x3  x4  x5  x6  x7  x8  x9  x10  x11  x12  x13  x14  x15  x16  x17 
 x18  x19  x20  x21  x22  x23  x24  x25  x26  x27  x28  x29  x30  x31  x32 
End
